26
Properties=species:S:1:pos:R:3 status=starting_conformer_not_DFT formal_charge=0 pbc="F F F"
O        1.54114359       0.48524240       2.41688083
C        2.25751542       0.53124820       1.38092135
O        2.80643471       1.74402871       0.97460672
C        2.54547546      -0.71945026       0.59953152
F        1.98180774      -1.82034060       1.22277439
F        3.91669943      -0.91047083       0.60555413
C        2.07251077      -0.63519713      -0.87356827
F        2.90445489       0.25428383      -1.53656684
F        2.26383846      -1.87763893      -1.45666589
C        0.60419969      -0.17814950      -1.13030779
F        0.43604860      -0.19620373      -2.50654871
F        0.45220269       1.13125522      -0.71452524
C       -0.49749187      -1.07408906      -0.48590967
F       -0.37626705      -1.05738257       0.88992418
F       -0.26960343      -2.37899621      -0.89647480
C       -1.96676704      -0.67679235      -0.88837762
F       -1.98356936       0.10568361      -2.03174217
F       -2.64996384      -1.84177797      -1.20560182
C       -2.81080805       0.03559615       0.20829036
F       -4.09961054       0.17463436      -0.28288040
F       -2.88667012      -0.76489736       1.33676102
C       -2.31961239       1.43730926       0.61693063
F       -2.11149218       2.23174883      -0.49615992
F       -3.28238126       2.04101591       1.40629002
F       -1.15399154       1.36383998       1.35410994
H        2.62589722       2.59550002       1.49275403
