25
Properties=species:S:1:pos:R:3 status=starting_conformer_not_DFT formal_charge=-1 pbc="F F F"
O        4.54913331       1.39817930      -0.83174543
C        4.01214743       1.12072232       0.27331355
O        4.10826352       2.02258180       1.32622593
C        3.22377624      -0.14729424       0.43560918
F        3.26528013      -0.53039408       1.76605829
F        3.82036526      -1.13944320      -0.32595791
C        1.75798997       0.06210162      -0.01117152
F        1.24558013       1.14490170       0.68661407
F        1.74822706       0.36071744      -1.36480518
C        0.87042964      -1.18574823       0.26087048
F        1.53295227      -2.32186620      -0.17673581
F        0.68043655      -1.31715393       1.62764553
C       -0.51579613      -1.17038603      -0.44296394
F       -0.32377534      -1.21915570      -1.81493836
F       -1.16850177      -2.33617574      -0.07405047
C       -1.41407455       0.05263268      -0.09857248
F       -1.39651232       0.27143357       1.26968729
F       -0.90641989       1.17381836      -0.73433889
C       -2.88502637      -0.15033225      -0.55300552
F       -2.91707812      -0.49150242      -1.89550526
F       -3.45741377      -1.18175567       0.17429290
C       -3.74903261       1.10700805      -0.35351521
F       -3.73664140       1.50272295       0.97227136
F       -5.05452119       0.82752319      -0.71639201
F       -3.28978803       2.14686474      -1.14250794
