30
Properties=species:S:1:pos:R:3 status=starting_conformer_not_DFT formal_charge=0 pbc="F F F"
O       -3.72940523       1.85018526       2.51634766
S       -2.85880448       1.35910770       1.16443588
O       -3.37755061       2.08683195      -0.04446919
O       -1.40900694       1.69799645       1.36364245
C       -3.09576666      -0.40944730       0.94431623
F       -2.89314634      -1.04172131       2.15928719
F       -4.42035274      -0.60017979       0.58866050
C       -2.18451088      -1.02480954      -0.15617275
F       -2.00636149      -0.10574826      -1.17633447
F       -2.85224255      -2.11056870      -0.70384764
C       -0.81184089      -1.53865436       0.38107587
F       -0.27743367      -0.64280603       1.28686298
F       -1.05285249      -2.71466787       1.07678316
C        0.22798545      -1.84606011      -0.74639653
F        1.01987338      -2.90376906      -0.32793154
F       -0.44959886      -2.29426983      -1.87088732
C        1.13450316      -0.63176517      -1.15950782
F        1.41943334      -0.74220970      -2.51160304
F        0.43130966       0.54346911      -0.97651157
C        2.48819209      -0.55496825      -0.38755105
F        3.18894987      -1.73289319      -0.59557620
F        2.25394266      -0.44416362       0.97179342
C        3.43425815       0.59640628      -0.83234659
F        4.58977334       0.49819480      -0.07285028
F        3.79454336       0.41341438      -2.15766939
C        2.87836669       2.02513440      -0.66313966
F        2.20567387       2.16106529       0.53832207
F        2.02870083       2.34630565      -1.70664271
F        3.92626055       2.92885886      -0.68060660
H       -3.60289255       2.83173197       2.55967545
