29
Properties=species:S:1:pos:R:3 status=starting_conformer_not_DFT formal_charge=-1 pbc="F F F"
O        4.60500388       2.45768776      -1.69931520
S        4.37464834       0.81123428      -1.45928154
O        5.54199245       0.26081092      -0.68918360
O        4.29005893       0.12704572      -2.79464806
C        2.85678426       0.56117751      -0.54063181
F        3.01944189       1.11075417       0.71893183
F        1.85407855       1.24562910      -1.20374193
C        2.49666746      -0.94170885      -0.43362723
F        2.13894152      -1.41188683      -1.68732202
F        3.62068878      -1.64510573      -0.02959506
C        1.36382552      -1.27031116       0.57815716
F        1.80385413      -0.96258538       1.85636904
F        1.15718344      -2.64026781       0.52685143
C        0.01476621      -0.54088328       0.31432957
F        0.14483872       0.78733452       0.68572832
F       -0.27457873      -0.60460559      -1.03886987
C       -1.16189870      -1.17593744       1.11059300
F       -1.48418779      -2.40036684       0.54576787
F       -0.75183278      -1.41330515       2.41356589
C       -2.44791022      -0.30606465       1.18826118
F       -2.17405026       0.84292409       1.91368233
F       -3.38715031      -1.03346956       1.90245011
C       -3.04980349       0.09222344      -0.18834287
F       -3.10727155      -1.01290494      -1.02164192
F       -2.25050840       1.05422582      -0.78331869
C       -4.46765747       0.67686831      -0.06648484
F       -5.35656193      -0.28503876       0.38043404
F       -4.47878217       1.74853462       0.80884627
F       -4.89058028       1.11750697      -1.30796343
